g9 0 1 0 0 20170614 0 4 0 240	# problem palmer1
 4 0 1 0 0	# vars, constraints, objectives, ranges, eqns
 0 1	# nonlinear constraints, objectives
 0 0	# network constraints: nonlinear, linear
 0 4 0	# nonlinear vars in constraints, objectives, both
 0 0 0 1	# linear network variables; functions; arith, flags
 0 0 0 0 0	# discrete variables: binary, integer, nonlinear (b,c,o)
 0 4	# nonzeros in Jacobian, gradients
 0 0	# max name lengths: constraints, variables
 0 0 0 0 0	# common exprs: b,c,o,c1,o1
b
3
2 1e-05
2 1e-05
2 1e-05
x4
0 1
1 1
2 1
3 1
O0 0
o54
31
o5
o1
n78.596218
o0
o2
n3.2003886153690004
v0
o3
v1
o0
v2
o3
n3.2003886153690004
v3
n2
o5
o1
n65.77963
o0
o2
n3.046173318241
v0
o3
v1
o0
v2
o3
n3.046173318241
v3
n2
o5
o1
n43.96947
o0
o2
n2.749172911969
v0
o3
v1
o0
v2
o3
n2.749172911969
v3
n2
o5
o1
n27.038816
o0
o2
n2.4674000736160004
v0
o3
v1
o0
v2
o3
n2.4674000736160004
v3
n2
o5
o1
n14.6126
o0
o2
n2.2008612609
v0
o3
v1
o0
v2
o3
n2.2008612609
v3
n2
o5
o1
n6.2614
o0
o2
n1.949550365169
v0
o3
v1
o0
v2
o3
n1.949550365169
v3
n2
o5
o1
n1.53833
o0
o2
n1.7134731460089998
v0
o3
v1
o0
v2
o3
n1.7134731460089998
v3
n2
o5
o16
o0
o2
n1.485015206544
v0
o3
v1
o0
v2
o3
n1.485015206544
v3
n2
o5
o1
n1.188045
o0
o2
n1.2870085672959999
v0
o3
v1
o0
v2
o3
n1.2870085672959999
v3
n2
o5
o1
n4.6841
o0
o2
n1.0966236512040002
v0
o3
v1
o0
v2
o3
n1.0966236512040002
v3
n2
o5
o1
n16.9321
o0
o2
n0.7615442022250001
v0
o3
v1
o0
v2
o3
n0.7615442022250001
v3
n2
o5
o1
n33.6988
o0
o2
n0.487388289424
v0
o3
v1
o0
v2
o3
n0.487388289424
v3
n2
o5
o1
n52.3664
o0
o2
n0.27415591280100005
v0
o3
v1
o0
v2
o3
n0.27415591280100005
v3
n2
o5
o1
n70.163
o0
o2
n0.121847072356
v0
o3
v1
o0
v2
o3
n0.121847072356
v3
n2
o5
o1
n83.4221
o0
o2
n0.030461768089
v0
o3
v1
o0
v2
o3
n0.030461768089
v3
n2
o5
o1
n88.3995
o3
v1
v2
n2
o5
o1
n78.596218
o0
o2
n3.2003886153690004
v0
o3
v1
o0
v2
o3
n3.2003886153690004
v3
n2
o5
o1
n65.77963
o0
o2
n3.046173318241
v0
o3
v1
o0
v2
o3
n3.046173318241
v3
n2
o5
o1
n43.96947
o0
o2
n2.749172911969
v0
o3
v1
o0
v2
o3
n2.749172911969
v3
n2
o5
o1
n27.038816
o0
o2
n2.4674000736160004
v0
o3
v1
o0
v2
o3
n2.4674000736160004
v3
n2
o5
o1
n14.6126
o0
o2
n2.2008612609
v0
o3
v1
o0
v2
o3
n2.2008612609
v3
n2
o5
o1
n6.2614
o0
o2
n1.949550365169
v0
o3
v1
o0
v2
o3
n1.949550365169
v3
n2
o5
o1
n1.53833
o0
o2
n1.7134731460089998
v0
o3
v1
o0
v2
o3
n1.7134731460089998
v3
n2
o5
o16
o0
o2
n1.485015206544
v0
o3
v1
o0
v2
o3
n1.485015206544
v3
n2
o5
o1
n1.188045
o0
o2
n1.2870085672959999
v0
o3
v1
o0
v2
o3
n1.2870085672959999
v3
n2
o5
o1
n4.6841
o0
o2
n1.0966236512040002
v0
o3
v1
o0
v2
o3
n1.0966236512040002
v3
n2
o5
o1
n16.9321
o0
o2
n0.7615442022250001
v0
o3
v1
o0
v2
o3
n0.7615442022250001
v3
n2
o5
o1
n33.6988
o0
o2
n0.487388289424
v0
o3
v1
o0
v2
o3
n0.487388289424
v3
n2
o5
o1
n52.3664
o0
o2
n0.27415591280100005
v0
o3
v1
o0
v2
o3
n0.27415591280100005
v3
n2
o5
o1
n70.163
o0
o2
n0.121847072356
v0
o3
v1
o0
v2
o3
n0.121847072356
v3
n2
o5
o1
n83.4221
o0
o2
n0.030461768089
v0
o3
v1
o0
v2
o3
n0.030461768089
v3
n2
k3
0
0
0
G0 4
0 0
1 0
2 0
3 0
